3187491
34,76,26,85,13,87,99,98,70,75,49,11,54,77,107,105,41,12,35,7,27,64,59,32,61,86,104,79,16,20,103,90,53,57,96,88,10,46,30,101,72,18,95,47,91,73,102,66,21,63,22,14,55,29,42,94,60,1,80,50,58,82,24,51,84,31,83,106,15,89,9,36,40,37,56,71,74,25,28,45,93,5,2,62,4,33,8,108,52,92,17,6,67,68,69,39,38,48,65,23,78,3,19,43,44,81,0,100,97
